100
61 37
93 57
15 67
23 43
53 5
13 75
29 73
47 37
23 71
67 45
21 49
93 43
67 13
69 25
53 35
25 39
85 69
81 27
77 79
45 43
31 75
49 99
63 9
47 37
33 47
39 69
49 3
49 87
87 39
37 91
19 33
97 35
31 5
35 25
79 61
73 73
35 95
5 43
19 45
71 39
35 63
27 73
31 21
47 9
87 45
1 49
1 77
63 73
79 71
21 55
65 23
65 47
97 23
23 71
5 81
53 27
57 85
89 23
51 65
13 49
91 41
DEMAND_SECTION Best value: 1035
0 
23 
17 
12 
6 
22 
3 
24 
24 
11 
7 
12 
8 
14 
20 
16 
16 
4 
9 
18 
14 
10 
19 
22 
19 
9 
18 
2 
18 
11 
19 
18 
15 
4 
12 
8 
18 
12 
72 
2 
5 
14 
11 
19 
16 
19 
3 
12 
10 
20 
7 
13 
16 
23 
22 
18 
6 
12 
27 
9 
15 